% seed = 9227276

mint = 42;
% maxt = 105;

nActs = 22;
dur = [0,7,10,9,7,10,1,9,1,4,4,1,9,2,1,4,3,1,9,6,7,0];

nSkills = 4;
sreq = [| 0,0,0,0,
	| 3,1,2,0,
	| 2,0,0,2,
	| 2,0,3,2,
	| 0,2,1,1,
	| 3,0,0,2,
	| 2,0,2,3,
	| 3,3,0,3,
	| 3,0,0,2,
	| 3,2,1,0,
	| 2,0,2,3,
	| 1,2,2,0,
	| 0,0,3,3,
	| 1,3,2,1,
	| 0,2,1,2,
	| 3,3,0,0,
	| 3,2,1,1,
	| 1,1,2,3,
	| 3,0,3,1,
	| 0,1,3,1,
	| 3,0,0,2,
	| 0,0,0,0, |];

nResources = 20;
mastery = [| true,false,false,false,
	| true,true,true,false,
	| false,true,false,false,
	| false,false,false,true,
	| false,true,true,false,
	| true,false,false,true,
	| true,true,false,true,
	| true,true,false,false,
	| false,false,true,true,
	| true,false,false,true,
	| true,false,false,true,
	| true,false,false,true,
	| false,true,false,true,
	| true,false,false,false,
	| false,false,true,false,
	| false,false,false,true,
	| false,true,false,true,
	| true,false,false,false,
	| true,false,false,true,
	| true,true,false,true, |];

nPrecs = 31;
pred = [1,1,1,2,2,3,3,4,4,4,5,5,6,7,7,8,9,10,11,12,13,13,14,15,16,17,17,18,19,20,21];
succ = [2,3,4,9,16,11,15,12,5,6,11,7,10,17,8,13,11,18,14,19,21,15,20,20,18,18,20,19,22,22,22];

nUnrels = 119;
unpred = [2,2,2,2,2,2,2,2,2,2,2,2,3,3,3,3,3,3,3,3,3,3,3,3,3,3,4,4,5,5,5,5,5,6,6,6,6,6,6,6,6,6,6,6,6,7,7,7,7,7,7,8,8,8,8,8,8,8,8,8,9,9,9,9,9,9,9,9,9,10,10,10,10,10,10,10,10,10,11,11,11,11,11,11,11,11,12,12,12,12,12,12,12,12,13,13,13,13,13,14,14,14,14,14,14,15,15,15,15,15,16,16,16,17,18,18,19,19,20];
unsucc = [3,4,5,6,7,8,10,12,13,15,17,21,4,5,6,7,8,9,10,12,13,16,17,18,19,21,9,16,6,9,10,12,16,7,8,9,11,12,13,14,15,16,17,20,21,9,10,11,12,14,16,9,10,11,12,14,16,17,18,19,10,12,13,15,16,17,18,19,21,11,12,13,14,15,16,17,20,21,12,13,15,16,17,18,19,21,13,14,15,16,17,18,20,21,14,16,17,18,19,15,16,17,18,19,21,16,17,18,19,21,17,20,21,21,20,21,20,21,21];

USEFUL_RES = [{},
	{1,2,3,5,6,7,8,9,10,11,12,13,14,15,17,18,19,20},
	{1,2,4,6,7,8,9,10,11,12,13,14,16,17,18,19,20},
	{1,2,4,5,6,7,8,9,10,11,12,13,14,15,16,17,18,19,20},
	{2,3,4,5,6,7,8,9,10,11,12,13,15,16,17,19,20},
	{1,2,4,6,7,8,9,10,11,12,13,14,16,17,18,19,20},
	{1,2,4,5,6,7,8,9,10,11,12,13,14,15,16,17,18,19,20},
	{1,2,3,4,5,6,7,8,9,10,11,12,13,14,16,17,18,19,20},
	{1,2,4,6,7,8,9,10,11,12,13,14,16,17,18,19,20},
	{1,2,3,5,6,7,8,9,10,11,12,13,14,15,17,18,19,20},
	{1,2,4,5,6,7,8,9,10,11,12,13,14,15,16,17,18,19,20},
	{1,2,3,5,6,7,8,9,10,11,12,13,14,15,17,18,19,20},
	{2,4,5,6,7,9,10,11,12,13,15,16,17,19,20},
	{1,2,3,4,5,6,7,8,9,10,11,12,13,14,15,16,17,18,19,20},
	{2,3,4,5,6,7,8,9,10,11,12,13,15,16,17,19,20},
	{1,2,3,5,6,7,8,10,11,12,13,14,17,18,19,20},
	{1,2,3,4,5,6,7,8,9,10,11,12,13,14,15,16,17,18,19,20},
	{1,2,3,4,5,6,7,8,9,10,11,12,13,14,15,16,17,18,19,20},
	{1,2,4,5,6,7,8,9,10,11,12,13,14,15,16,17,18,19,20},
	{2,3,4,5,6,7,8,9,10,11,12,13,15,16,17,19,20},
	{1,2,4,6,7,8,9,10,11,12,13,14,16,17,18,19,20},
	{}];

POTENTIAL_ACT = [{2,3,4,6,7,8,9,10,11,12,14,16,17,18,19,21},
	{2,3,4,5,6,7,8,9,10,11,12,13,14,15,16,17,18,19,20,21},
	{2,5,8,10,12,14,15,16,17,18,20},
	{3,4,5,6,7,8,9,11,13,14,15,17,18,19,20,21},
	{2,4,5,7,8,10,11,12,13,14,15,16,17,18,19,20},
	{2,3,4,5,6,7,8,9,10,11,12,13,14,15,16,17,18,19,20,21},
	{2,3,4,5,6,7,8,9,10,11,12,13,14,15,16,17,18,19,20,21},
	{2,3,4,5,6,7,8,9,10,11,12,14,15,16,17,18,19,20,21},
	{2,3,4,5,6,7,8,9,10,11,12,13,14,15,17,18,19,20,21},
	{2,3,4,5,6,7,8,9,10,11,12,13,14,15,16,17,18,19,20,21},
	{2,3,4,5,6,7,8,9,10,11,12,13,14,15,16,17,18,19,20,21},
	{2,3,4,5,6,7,8,9,10,11,12,13,14,15,16,17,18,19,20,21},
	{2,3,4,5,6,7,8,9,10,11,12,13,14,15,16,17,18,19,20,21},
	{2,3,4,6,7,8,9,10,11,12,14,16,17,18,19,21},
	{2,4,5,7,10,11,12,13,14,15,17,18,19,20},
	{3,4,5,6,7,8,9,11,13,14,15,17,18,19,20,21},
	{2,3,4,5,6,7,8,9,10,11,12,13,14,15,16,17,18,19,20,21},
	{2,3,4,6,7,8,9,10,11,12,14,16,17,18,19,21},
	{2,3,4,5,6,7,8,9,10,11,12,13,14,15,16,17,18,19,20,21},
	{2,3,4,5,6,7,8,9,10,11,12,13,14,15,16,17,18,19,20,21}];
